************************************************************************
file with basedata            : md352_.bas
initial value random generator: 604222659
************************************************************************
projects                      :  1
jobs (incl. supersource/sink ):  22
horizon                       :  153
RESOURCES
  - renewable                 :  2   R
  - nonrenewable              :  2   N
  - doubly constrained        :  0   D
************************************************************************
PROJECT INFORMATION:
pronr.  #jobs rel.date duedate tardcost  MPM-Time
    1     20      0       19       18       19
************************************************************************
PRECEDENCE RELATIONS:
jobnr.    #modes  #successors   successors
   1        1          3           2   3   4
   2        3          2           5   6
   3        3          3           8  10  14
   4        3          3           6   7  12
   5        3          2           9  16
   6        3          2          16  19
   7        3          3          11  15  21
   8        3          3          12  18  21
   9        3          3          12  14  18
  10        3          2          16  20
  11        3          2          13  18
  12        3          1          15
  13        3          1          14
  14        3          1          17
  15        3          2          17  19
  16        3          1          21
  17        3          1          20
  18        3          2          19  20
  19        3          1          22
  20        3          1          22
  21        3          1          22
  22        1          0        
************************************************************************
REQUESTS/DURATIONS:
jobnr. mode duration  R 1  R 2  N 1  N 2
------------------------------------------------------------------------
  1      1     0       0    0    0    0
  2      1     4       4    6    5    0
         2     6       4    4    4    0
         3    10       3    4    0    7
  3      1     5       9    8    0   10
         2     6       7    8    0    7
         3    10       6    8    0    7
  4      1     3       7    4    0    4
         2     5       7    3    6    0
         3     6       7    2    5    0
  5      1     4       6    3    0    6
         2     5       4    3    0    5
         3     6       2    3    5    0
  6      1     1       6    4    0    4
         2     6       6    3    0    2
         3     9       5    2    9    0
  7      1     2       9    8    0    6
         2     5       9    5    2    0
         3     6       9    5    0    2
  8      1     3       3    7    5    0
         2     7       3    6    3    0
         3     7       3    6    0    8
  9      1     2       8   10    9    0
         2     7       8    9    0    8
         3     9       7    8    2    0
 10      1     1       8    6    7    0
         2     4       6    5    5    0
         3     6       5    5    4    0
 11      1     5       8    7    7    0
         2     7       5    4    6    0
         3     8       4    3    4    0
 12      1     3       7    5    7    0
         2     7       5    3    4    0
         3    10       2    2    0    5
 13      1     1       9    6    0    4
         2     4       4    5    0    3
         3     6       1    1    0    3
 14      1     4       6    6    9    0
         2     4       5    7    0    9
         3     9       3    3    0    9
 15      1     1       9    7    0    7
         2    10       6    4    7    0
         3    10       5    4    0    2
 16      1     1       9    2    0    2
         2     1       9    2    6    0
         3     5       5    2    0    3
 17      1     1       8    5    0   10
         2     3       6    5    0    4
         3     4       6    4    6    0
 18      1     2       4    9    6    0
         2     2       4    9    0    9
         3     7       4    8    0    5
 19      1     4       8    8    0    2
         2     8       5    6    0    1
         3     9       3    5    0    1
 20      1     3       2    9    0    6
         2     4       2    6   10    0
         3     6       1    3    0    2
 21      1     7       4    3    0    9
         2     7       4    3    4    0
         3    10       3    2    0    9
 22      1     0       0    0    0    0
************************************************************************
RESOURCEAVAILABILITIES:
  R 1  R 2  N 1  N 2
   30   24  110  117
************************************************************************
MAXIMAL LAGS:
from  to  type  delay
    1   22   ES      0
    1    2   ES      0
    2   22   ES      0
    1    3   ES      0
    3   22   ES      0
    1    4   ES      0
    4   22   ES      0
    1    5   ES      0
    5   22   ES      0
    1    6   ES      0
    6   22   ES      0
    1    7   ES      0
    7   22   ES      0
    1    8   ES      0
    8   22   ES      0
    1    9   ES      0
    9   22   ES      0
    1   10   ES      0
   10   22   ES      0
    1   11   ES      0
   11   22   ES      0
    1   12   ES      0
   12   22   ES      0
    1   13   ES      0
   13   22   ES      0
    1   14   ES      0
   14   22   ES      0
    1   15   ES      0
   15   22   ES      0
    1   16   ES      0
   16   22   ES      0
    1   17   ES      0
   17   22   ES      0
    1   18   ES      0
   18   22   ES      0
    1   19   ES      0
   19   22   ES      0
    1   20   ES      0
   20   22   ES      0
    1   21   ES      0
   21   22   ES      0
    1   22   ES      0
    2    5   SS     10
    2    5   SE      7
    2    5   ES     12
    2    5   EE    -11
    2    6   SS     11
    2    6   SE      4
    2    6   ES     -4
    2    6   EE     -9
    3    8   SS      6
    3    8   SE      8
    3    8   ES     -3
    3    8   EE      8
    3   10   SS      2
    3   10   SE      4
    3   10   ES     -2
    3   10   EE     -1
    3   14   SS    -12
    3   14   SE      8
    3   14   ES     -9
    3   14   EE    -10
    4    6   SS     -6
    4    6   SE      2
    4    6   ES     -2
    4    6   EE     -5
    4    7   SS     -2
    4    7   SE      4
    4    7   ES     -7
    4    7   EE     10
    4   12   SS     -9
    4   12   SE    -12
    4   12   ES      3
    4   12   EE     -7
    5    9   SS      5
    5    9   SE      4
    5    9   ES      9
    5    9   EE      2
    5   16   SS      4
    5   16   SE     11
    5   16   ES    -12
    5   16   EE      3
    6   16   SS     -8
    6   16   SE     12
    6   16   ES      2
    6   16   EE      7
    6   19   SS     12
    6   19   SE    -11
    6   19   ES     10
    6   19   EE     -5
    7   11   SS      2
    7   11   SE     -9
    7   11   ES      1
    7   11   EE     -9
    7   15   SS      1
    7   15   SE    -12
    7   15   ES      5
    7   15   EE     10
    7   21   SS      4
    7   21   SE     -9
    7   21   ES     12
    7   21   EE      7
    8   12   SS      3
    8   12   SE     -8
    8   12   ES     -8
    8   12   EE     -6
    8   18   SS      9
    8   18   SE      7
    8   18   ES     12
    8   18   EE      6
    8   21   SS      8
    8   21   SE      0
    8   21   ES     -4
    8   21   EE      3
    9   12   SS      3
    9   12   SE     12
    9   12   ES     -9
    9   12   EE      5
    9   14   SS     -6
    9   14   SE      3
    9   14   ES     -2
    9   14   EE     -5
    9   18   SS    -11
    9   18   SE      2
    9   18   ES      1
    9   18   EE      5
   10   16   SS     -9
   10   16   SE    -12
   10   16   ES     -7
   10   16   EE     -3
   10   20   SS      5
   10   20   SE    -12
   10   20   ES      9
   10   20   EE     11
   11   13   SS     10
   11   13   SE      5
   11   13   ES     -1
   11   13   EE     -1
   11   18   SS      2
   11   18   SE      4
   11   18   ES    -11
   11   18   EE    -12
   12   15   SS     -7
   12   15   SE      8
   12   15   ES     -4
   12   15   EE      9
   13   14   SS     -3
   13   14   SE     -6
   13   14   ES     12
   13   14   EE     -8
   14   17   SS     -6
   14   17   SE      0
   14   17   ES     -7
   14   17   EE     -7
   15   17   SS     -9
   15   17   SE      0
   15   17   ES      6
   15   17   EE    -11
   15   19   SS      0
   15   19   SE      7
   15   19   ES      9
   15   19   EE     12
   16   21   SS      0
   16   21   SE      5
   16   21   ES     -1
   16   21   EE      2
   17   20   SS     -4
   17   20   SE      0
   17   20   ES      9
   17   20   EE      3
   18   19   SS    -12
   18   19   SE      0
   18   19   ES      2
   18   19   EE      9
   18   20   SS      9
   18   20   SE     -1
   18   20   ES    -10
   18   20   EE      1
************************************************************************
